NAME          BLANK   
ROWS
 N  OBJROW
 L  R0000000
COLUMNS
    C0000000  OBJROW     -736.         R0000000  606.        
    C0000001  OBJROW     -387.         R0000000  963.        
    C0000002  OBJROW     -38.          R0000000  664.        
    C0000003  OBJROW     -996.         R0000000  553.        
    C0000004  OBJROW     -167.         R0000000  138.        
    C0000005  OBJROW     -330.         R0000000  681.        
    C0000006  OBJROW     -376.         R0000000  354.        
    C0000007  OBJROW     -10.          R0000000  543.        
    C0000008  OBJROW     -56.          R0000000  764.        
    C0000009  OBJROW     -754.         R0000000  101.        
    C0000010  OBJROW     -144.         R0000000  430.        
    C0000011  OBJROW     -355.         R0000000  811.        
    C0000012  OBJROW     -664.         R0000000  912.        
    C0000013  OBJROW     -835.         R0000000  331.        
    C0000014  OBJROW     -216.         R0000000  424.        
    C0000015  OBJROW     -737.         R0000000  433.        
    C0000016  OBJROW     -410.         R0000000  914.        
    C0000017  OBJROW     -407.         R0000000  119.        
    C0000018  OBJROW     -964.         R0000000  979.        
    C0000019  OBJROW     -535.         R0000000  504.        
RHS
    RHS       R0000000  5612.       
BOUNDS
 BV BOUND     C0000000  1.          
 BV BOUND     C0000001  1.          
 BV BOUND     C0000002  1.          
 BV BOUND     C0000003  1.          
 BV BOUND     C0000004  1.          
 BV BOUND     C0000005  1.          
 BV BOUND     C0000006  1.          
 BV BOUND     C0000007  1.          
 BV BOUND     C0000008  1.          
 BV BOUND     C0000009  1.          
 BV BOUND     C0000010  1.          
 BV BOUND     C0000011  1.          
 BV BOUND     C0000012  1.          
 BV BOUND     C0000013  1.          
 BV BOUND     C0000014  1.          
 BV BOUND     C0000015  1.          
 BV BOUND     C0000016  1.          
 BV BOUND     C0000017  1.          
 BV BOUND     C0000018  1.          
 BV BOUND     C0000019  1.          
ENDATA
